100 4950
1 2 3
1 3 1
1 4 1
1 5 3
1 6 2
1 7 2
1 8 5
1 9 2
1 10 2
1 11 4
1 12 4
1 13 5
1 14 1
1 15 3
1 16 5
1 17 5
1 18 4
1 19 4
1 20 5
1 21 5
1 22 1
1 23 4
1 24 1
1 25 2
1 26 1
1 27 5
1 28 5
1 29 3
1 30 4
1 31 5
1 32 2
1 33 1
1 34 5
1 35 5
1 36 4
1 37 4
1 38 4
1 39 4
1 40 3
1 41 2
1 42 4
1 43 3
1 44 5
1 45 3
1 46 3
1 47 1
1 48 1
1 49 2
1 50 2
1 51 3
1 52 3
1 53 1
1 54 4
1 55 4
1 56 1
1 57 2
1 58 2
1 59 5
1 60 2
1 61 4
1 62 3
1 63 2
1 64 1
1 65 5
1 66 5
1 67 5
1 68 1
1 69 2
1 70 2
1 71 2
1 72 4
1 73 5
1 74 3
1 75 5
1 76 3
1 77 2
1 78 3
1 79 4
1 80 2
1 81 3
1 82 2
1 83 4
1 84 4
1 85 1
1 86 2
1 87 5
1 88 4
1 89 2
1 90 1
1 91 4
1 92 3
1 93 1
1 94 5
1 95 2
1 96 4
1 97 5
1 98 1
1 99 5
1 100 3
2 3 5
2 4 2
2 5 1
2 6 3
2 7 5
2 8 4
2 9 2
2 10 1
2 11 2
2 12 2
2 13 4
2 14 3
2 15 1
2 16 2
2 17 1
2 18 4
2 19 1
2 20 1
2 21 5
2 22 3
2 23 1
2 24 5
2 25 4
2 26 5
2 27 4
2 28 5
2 29 1
2 30 2
2 31 3
2 32 3
2 33 1
2 34 4
2 35 1
2 36 1
2 37 3
2 38 5
2 39 2
2 40 2
2 41 4
2 42 4
2 43 5
2 44 4
2 45 5
2 46 2
2 47 2
2 48 1
2 49 4
2 50 1
2 51 1
2 52 5
2 53 1
2 54 5
2 55 3
2 56 5
2 57 5
2 58 5
2 59 4
2 60 4
2 61 3
2 62 3
2 63 5
2 64 5
2 65 4
2 66 2
2 67 1
2 68 4
2 69 4
2 70 2
2 71 4
2 72 4
2 73 2
2 74 4
2 75 1
2 76 3
2 77 1
2 78 5
2 79 4
2 80 4
2 81 3
2 82 2
2 83 1
2 84 2
2 85 1
2 86 2
2 87 5
2 88 1
2 89 3
2 90 1
2 91 4
2 92 1
2 93 2
2 94 4
2 95 5
2 96 3
2 97 3
2 98 5
2 99 5
2 100 5
3 4 3
3 5 4
3 6 5
3 7 2
3 8 5
3 9 5
3 10 4
3 11 2
3 12 4
3 13 4
3 14 2
3 15 1
3 16 2
3 17 4
3 18 3
3 19 2
3 20 1
3 21 3
3 22 3
3 23 1
3 24 4
3 25 5
3 26 1
3 27 1
3 28 1
3 29 2
3 30 3
3 31 2
3 32 5
3 33 2
3 34 5
3 35 3
3 36 1
3 37 2
3 38 2
3 39 3
3 40 4
3 41 5
3 42 3
3 43 5
3 44 2
3 45 3
3 46 4
3 47 1
3 48 5
3 49 4
3 50 5
3 51 2
3 52 4
3 53 2
3 54 2
3 55 1
3 56 5
3 57 1
3 58 1
3 59 3
3 60 1
3 61 2
3 62 4
3 63 5
3 64 2
3 65 5
3 66 4
3 67 4
3 68 3
3 69 3
3 70 5
3 71 5
3 72 2
3 73 4
3 74 4
3 75 2
3 76 4
3 77 2
3 78 5
3 79 5
3 80 3
3 81 2
3 82 3
3 83 2
3 84 1
3 85 1
3 86 5
3 87 5
3 88 2
3 89 2
3 90 1
3 91 5
3 92 5
3 93 3
3 94 1
3 95 4
3 96 1
3 97 5
3 98 5
3 99 1
3 100 1
4 5 2
4 6 2
4 7 5
4 8 5
4 9 4
4 10 1
4 11 1
4 12 1
4 13 4
4 14 2
4 15 1
4 16 4
4 17 1
4 18 4
4 19 2
4 20 1
4 21 4
4 22 3
4 23 1
4 24 2
4 25 5
4 26 5
4 27 5
4 28 2
4 29 1
4 30 2
4 31 2
4 32 3
4 33 1
4 34 5
4 35 1
4 36 5
4 37 3
4 38 5
4 39 2
4 40 4
4 41 3
4 42 3
4 43 2
4 44 5
4 45 4
4 46 3
4 47 4
4 48 5
4 49 3
4 50 1
4 51 4
4 52 3
4 53 2
4 54 4
4 55 1
4 56 4
4 57 3
4 58 5
4 59 3
4 60 5
4 61 3
4 62 3
4 63 4
4 64 5
4 65 2
4 66 3
4 67 3
4 68 1
4 69 5
4 70 1
4 71 5
4 72 5
4 73 3
4 74 1
4 75 5
4 76 3
4 77 3
4 78 2
4 79 4
4 80 3
4 81 2
4 82 2
4 83 3
4 84 2
4 85 3
4 86 3
4 87 1
4 88 4
4 89 1
4 90 2
4 91 1
4 92 2
4 93 1
4 94 5
4 95 2
4 96 5
4 97 5
4 98 5
4 99 1
4 100 5
5 6 4
5 7 1
5 8 4
5 9 1
5 10 4
5 11 1
5 12 2
5 13 5
5 14 5
5 15 1
5 16 3
5 17 5
5 18 2
5 19 4
5 20 2
5 21 5
5 22 5
5 23 1
5 24 4
5 25 1
5 26 5
5 27 2
5 28 2
5 29 3
5 30 4
5 31 3
5 32 1
5 33 4
5 34 4
5 35 3
5 36 5
5 37 1
5 38 4
5 39 2
5 40 5
5 41 3
5 42 3
5 43 2
5 44 4
5 45 4
5 46 4
5 47 3
5 48 2
5 49 2
5 50 1
5 51 1
5 52 1
5 53 3
5 54 3
5 55 1
5 56 5
5 57 3
5 58 3
5 59 4
5 60 4
5 61 2
5 62 5
5 63 4
5 64 2
5 65 5
5 66 4
5 67 4
5 68 4
5 69 1
5 70 5
5 71 1
5 72 5
5 73 3
5 74 5
5 75 2
5 76 2
5 77 1
5 78 3
5 79 5
5 80 1
5 81 3
5 82 2
5 83 1
5 84 3
5 85 2
5 86 3
5 87 1
5 88 4
5 89 2
5 90 2
5 91 3
5 92 1
5 93 2
5 94 3
5 95 2
5 96 1
5 97 2
5 98 4
5 99 4
5 100 3
6 7 2
6 8 5
6 9 4
6 10 2
6 11 3
6 12 3
6 13 1
6 14 4
6 15 3
6 16 2
6 17 5
6 18 2
6 19 5
6 20 3
6 21 1
6 22 1
6 23 5
6 24 3
6 25 4
6 26 5
6 27 5
6 28 1
6 29 4
6 30 4
6 31 2
6 32 4
6 33 3
6 34 3
6 35 4
6 36 3
6 37 1
6 38 4
6 39 1
6 40 4
6 41 5
6 42 5
6 43 2
6 44 5
6 45 1
6 46 5
6 47 4
6 48 5
6 49 1
6 50 4
6 51 4
6 52 2
6 53 1
6 54 2
6 55 5
6 56 5
6 57 5
6 58 5
6 59 4
6 60 1
6 61 5
6 62 5
6 63 2
6 64 1
6 65 4
6 66 3
6 67 2
6 68 3
6 69 4
6 70 2
6 71 4
6 72 4
6 73 5
6 74 1
6 75 3
6 76 5
6 77 5
6 78 2
6 79 3
6 80 2
6 81 5
6 82 5
6 83 4
6 84 2
6 85 3
6 86 3
6 87 5
6 88 5
6 89 3
6 90 3
6 91 4
6 92 2
6 93 3
6 94 4
6 95 5
6 96 5
6 97 1
6 98 5
6 99 5
6 100 4
7 8 2
7 9 5
7 10 5
7 11 3
7 12 4
7 13 1
7 14 1
7 15 1
7 16 2
7 17 5
7 18 2
7 19 3
7 20 3
7 21 4
7 22 2
7 23 1
7 24 4
7 25 5
7 26 2
7 27 5
7 28 2
7 29 3
7 30 4
7 31 1
7 32 5
7 33 1
7 34 5
7 35 1
7 36 4
7 37 1
7 38 2
7 39 3
7 40 4
7 41 4
7 42 2
7 43 1
7 44 2
7 45 4
7 46 3
7 47 3
7 48 1
7 49 1
7 50 3
7 51 1
7 52 2
7 53 2
7 54 5
7 55 3
7 56 5
7 57 5
7 58 4
7 59 1
7 60 4
7 61 1
7 62 1
7 63 2
7 64 2
7 65 2
7 66 2
7 67 2
7 68 4
7 69 4
7 70 3
7 71 4
7 72 5
7 73 1
7 74 1
7 75 5
7 76 1
7 77 5
7 78 1
7 79 4
7 80 5
7 81 1
7 82 3
7 83 5
7 84 3
7 85 5
7 86 3
7 87 3
7 88 1
7 89 5
7 90 2
7 91 2
7 92 5
7 93 4
7 94 4
7 95 1
7 96 1
7 97 1
7 98 2
7 99 2
7 100 1
8 9 2
8 10 1
8 11 4
8 12 4
8 13 3
8 14 1
8 15 1
8 16 5
8 17 4
8 18 5
8 19 1
8 20 3
8 21 1
8 22 5
8 23 1
8 24 1
8 25 4
8 26 2
8 27 2
8 28 5
8 29 1
8 30 1
8 31 5
8 32 5
8 33 5
8 34 4
8 35 1
8 36 2
8 37 5
8 38 2
8 39 1
8 40 1
8 41 4
8 42 1
8 43 5
8 44 3
8 45 3
8 46 2
8 47 3
8 48 3
8 49 4
8 50 5
8 51 1
8 52 2
8 53 2
8 54 2
8 55 2
8 56 3
8 57 2
8 58 1
8 59 4
8 60 5
8 61 5
8 62 3
8 63 5
8 64 1
8 65 3
8 66 5
8 67 5
8 68 4
8 69 4
8 70 5
8 71 5
8 72 1
8 73 4
8 74 4
8 75 2
8 76 5
8 77 2
8 78 2
8 79 4
8 80 3
8 81 2
8 82 4
8 83 5
8 84 3
8 85 4
8 86 2
8 87 2
8 88 4
8 89 3
8 90 5
8 91 3
8 92 4
8 93 4
8 94 4
8 95 1
8 96 1
8 97 2
8 98 3
8 99 2
8 100 5
9 10 5
9 11 5
9 12 2
9 13 4
9 14 5
9 15 2
9 16 2
9 17 1
9 18 2
9 19 3
9 20 2
9 21 2
9 22 1
9 23 5
9 24 2
9 25 2
9 26 3
9 27 3
9 28 5
9 29 2
9 30 4
9 31 2
9 32 3
9 33 4
9 34 1
9 35 1
9 36 2
9 37 1
9 38 4
9 39 5
9 40 4
9 41 2
9 42 4
9 43 2
9 44 3
9 45 4
9 46 2
9 47 4
9 48 3
9 49 3
9 50 5
9 51 3
9 52 1
9 53 3
9 54 5
9 55 1
9 56 2
9 57 3
9 58 1
9 59 4
9 60 2
9 61 4
9 62 3
9 63 5
9 64 2
9 65 2
9 66 5
9 67 3
9 68 1
9 69 3
9 70 1
9 71 4
9 72 3
9 73 2
9 74 3
9 75 1
9 76 3
9 77 4
9 78 1
9 79 5
9 80 3
9 81 2
9 82 4
9 83 4
9 84 4
9 85 3
9 86 3
9 87 1
9 88 3
9 89 4
9 90 2
9 91 1
9 92 4
9 93 3
9 94 3
9 95 5
9 96 4
9 97 3
9 98 1
9 99 2
9 100 3
10 11 3
10 12 3
10 13 4
10 14 2
10 15 4
10 16 2
10 17 4
10 18 5
10 19 5
10 20 4
10 21 1
10 22 4
10 23 4
10 24 2
10 25 3
10 26 1
10 27 2
10 28 2
10 29 1
10 30 3
10 31 4
10 32 4
10 33 1
10 34 5
10 35 1
10 36 5
10 37 4
10 38 4
10 39 5
10 40 1
10 41 5
10 42 4
10 43 2
10 44 5
10 45 1
10 46 5
10 47 3
10 48 5
10 49 2
10 50 2
10 51 3
10 52 1
10 53 3
10 54 5
10 55 2
10 56 5
10 57 1
10 58 4
10 59 1
10 60 1
10 61 1
10 62 3
10 63 4
10 64 2
10 65 5
10 66 4
10 67 3
10 68 2
10 69 3
10 70 3
10 71 5
10 72 3
10 73 2
10 74 4
10 75 2
10 76 4
10 77 5
10 78 3
10 79 3
10 80 1
10 81 2
10 82 4
10 83 3
10 84 4
10 85 1
10 86 2
10 87 5
10 88 2
10 89 5
10 90 4
10 91 4
10 92 4
10 93 3
10 94 5
10 95 4
10 96 3
10 97 4
10 98 1
10 99 5
10 100 4
11 12 5
11 13 1
11 14 5
11 15 1
11 16 5
11 17 4
11 18 3
11 19 1
11 20 1
11 21 1
11 22 3
11 23 4
11 24 3
11 25 3
11 26 3
11 27 5
11 28 2
11 29 5
11 30 4
11 31 5
11 32 5
11 33 2
11 34 3
11 35 3
11 36 2
11 37 4
11 38 5
11 39 1
11 40 4
11 41 5
11 42 2
11 43 1
11 44 3
11 45 3
11 46 1
11 47 2
11 48 4
11 49 4
11 50 5
11 51 5
11 52 4
11 53 3
11 54 3
11 55 1
11 56 4
11 57 3
11 58 1
11 59 3
11 60 1
11 61 2
11 62 1
11 63 4
11 64 2
11 65 5
11 66 2
11 67 1
11 68 1
11 69 3
11 70 5
11 71 3
11 72 2
11 73 5
11 74 1
11 75 1
11 76 5
11 77 3
11 78 1
11 79 2
11 80 1
11 81 4
11 82 2
11 83 1
11 84 3
11 85 4
11 86 3
11 87 1
11 88 5
11 89 4
11 90 2
11 91 3
11 92 2
11 93 5
11 94 1
11 95 5
11 96 5
11 97 3
11 98 4
11 99 4
11 100 1
12 13 1
12 14 2
12 15 2
12 16 5
12 17 2
12 18 1
12 19 5
12 20 3
12 21 5
12 22 4
12 23 5
12 24 4
12 25 3
12 26 4
12 27 2
12 28 3
12 29 2
12 30 4
12 31 2
12 32 2
12 33 4
12 34 1
12 35 4
12 36 1
12 37 5
12 38 2
12 39 4
12 40 1
12 41 4
12 42 3
12 43 5
12 44 2
12 45 3
12 46 1
12 47 5
12 48 5
12 49 3
12 50 4
12 51 1
12 52 1
12 53 4
12 54 3
12 55 4
12 56 5
12 57 1
12 58 3
12 59 2
12 60 4
12 61 3
12 62 3
12 63 5
12 64 4
12 65 1
12 66 2
12 67 2
12 68 1
12 69 3
12 70 2
12 71 3
12 72 4
12 73 1
12 74 4
12 75 4
12 76 4
12 77 3
12 78 1
12 79 2
12 80 4
12 81 1
12 82 4
12 83 1
12 84 1
12 85 1
12 86 1
12 87 2
12 88 4
12 89 2
12 90 2
12 91 2
12 92 4
12 93 1
12 94 4
12 95 1
12 96 1
12 97 4
12 98 1
12 99 2
12 100 5
13 14 3
13 15 1
13 16 1
13 17 4
13 18 4
13 19 3
13 20 3
13 21 2
13 22 5
13 23 3
13 24 4
13 25 3
13 26 2
13 27 2
13 28 5
13 29 5
13 30 4
13 31 1
13 32 4
13 33 3
13 34 4
13 35 3
13 36 4
13 37 4
13 38 2
13 39 5
13 40 2
13 41 2
13 42 4
13 43 3
13 44 4
13 45 3
13 46 5
13 47 4
13 48 5
13 49 3
13 50 2
13 51 1
13 52 2
13 53 3
13 54 2
13 55 5
13 56 1
13 57 3
13 58 4
13 59 4
13 60 5
13 61 5
13 62 4
13 63 3
13 64 4
13 65 5
13 66 3
13 67 5
13 68 2
13 69 5
13 70 4
13 71 5
13 72 2
13 73 2
13 74 4
13 75 3
13 76 2
13 77 3
13 78 1
13 79 5
13 80 3
13 81 2
13 82 4
13 83 2
13 84 1
13 85 5
13 86 5
13 87 3
13 88 3
13 89 2
13 90 2
13 91 4
13 92 1
13 93 2
13 94 2
13 95 4
13 96 5
13 97 1
13 98 5
13 99 3
13 100 2
14 15 1
14 16 5
14 17 2
14 18 1
14 19 2
14 20 1
14 21 3
14 22 4
14 23 5
14 24 3
14 25 5
14 26 5
14 27 4
14 28 3
14 29 2
14 30 4
14 31 2
14 32 2
14 33 5
14 34 1
14 35 1
14 36 5
14 37 1
14 38 5
14 39 1
14 40 2
14 41 2
14 42 3
14 43 1
14 44 2
14 45 2
14 46 3
14 47 5
14 48 2
14 49 3
14 50 5
14 51 2
14 52 3
14 53 3
14 54 1
14 55 2
14 56 2
14 57 2
14 58 4
14 59 4
14 60 5
14 61 5
14 62 3
14 63 3
14 64 3
14 65 3
14 66 5
14 67 1
14 68 3
14 69 1
14 70 1
14 71 1
14 72 5
14 73 1
14 74 4
14 75 5
14 76 2
14 77 5
14 78 3
14 79 2
14 80 1
14 81 4
14 82 3
14 83 2
14 84 1
14 85 4
14 86 1
14 87 5
14 88 4
14 89 3
14 90 5
14 91 3
14 92 4
14 93 5
14 94 3
14 95 2
14 96 4
14 97 2
14 98 5
14 99 3
14 100 2
15 16 5
15 17 4
15 18 4
15 19 4
15 20 1
15 21 5
15 22 5
15 23 1
15 24 1
15 25 2
15 26 1
15 27 5
15 28 3
15 29 4
15 30 2
15 31 5
15 32 3
15 33 2
15 34 3
15 35 5
15 36 4
15 37 3
15 38 4
15 39 3
15 40 1
15 41 4
15 42 2
15 43 5
15 44 3
15 45 1
15 46 3
15 47 4
15 48 3
15 49 4
15 50 3
15 51 1
15 52 4
15 53 3
15 54 2
15 55 5
15 56 1
15 57 2
15 58 1
15 59 3
15 60 4
15 61 4
15 62 2
15 63 4
15 64 1
15 65 3
15 66 2
15 67 1
15 68 3
15 69 2
15 70 1
15 71 5
15 72 5
15 73 4
15 74 1
15 75 5
15 76 3
15 77 4
15 78 2
15 79 1
15 80 4
15 81 1
15 82 5
15 83 1
15 84 1
15 85 5
15 86 3
15 87 3
15 88 1
15 89 3
15 90 4
15 91 2
15 92 5
15 93 5
15 94 5
15 95 3
15 96 5
15 97 2
15 98 5
15 99 3
15 100 1
16 17 5
16 18 2
16 19 2
16 20 5
16 21 2
16 22 4
16 23 1
16 24 5
16 25 1
16 26 1
16 27 5
16 28 5
16 29 2
16 30 3
16 31 1
16 32 3
16 33 4
16 34 3
16 35 2
16 36 3
16 37 1
16 38 3
16 39 2
16 40 5
16 41 1
16 42 5
16 43 4
16 44 3
16 45 5
16 46 2
16 47 3
16 48 5
16 49 5
16 50 4
16 51 3
16 52 1
16 53 4
16 54 2
16 55 5
16 56 5
16 57 3
16 58 2
16 59 2
16 60 3
16 61 1
16 62 2
16 63 1
16 64 2
16 65 5
16 66 3
16 67 3
16 68 3
16 69 4
16 70 1
16 71 2
16 72 5
16 73 1
16 74 3
16 75 3
16 76 5
16 77 3
16 78 4
16 79 5
16 80 4
16 81 2
16 82 3
16 83 2
16 84 4
16 85 4
16 86 5
16 87 1
16 88 4
16 89 3
16 90 2
16 91 1
16 92 5
16 93 1
16 94 4
16 95 1
16 96 5
16 97 3
16 98 1
16 99 4
16 100 5
17 18 3
17 19 5
17 20 2
17 21 2
17 22 2
17 23 2
17 24 2
17 25 4
17 26 1
17 27 2
17 28 1
17 29 2
17 30 5
17 31 5
17 32 3
17 33 4
17 34 4
17 35 5
17 36 4
17 37 2
17 38 3
17 39 1
17 40 5
17 41 4
17 42 2
17 43 1
17 44 3
17 45 4
17 46 5
17 47 1
17 48 2
17 49 3
17 50 3
17 51 1
17 52 1
17 53 4
17 54 4
17 55 1
17 56 5
17 57 2
17 58 5
17 59 5
17 60 5
17 61 3
17 62 4
17 63 5
17 64 2
17 65 2
17 66 1
17 67 5
17 68 3
17 69 5
17 70 1
17 71 2
17 72 5
17 73 3
17 74 5
17 75 3
17 76 4
17 77 4
17 78 1
17 79 1
17 80 3
17 81 5
17 82 1
17 83 4
17 84 1
17 85 5
17 86 5
17 87 2
17 88 2
17 89 5
17 90 5
17 91 1
17 92 5
17 93 5
17 94 1
17 95 5
17 96 5
17 97 3
17 98 3
17 99 3
17 100 2
18 19 5
18 20 1
18 21 5
18 22 2
18 23 3
18 24 1
18 25 2
18 26 2
18 27 3
18 28 2
18 29 2
18 30 2
18 31 5
18 32 2
18 33 1
18 34 1
18 35 1
18 36 5
18 37 3
18 38 1
18 39 1
18 40 2
18 41 5
18 42 4
18 43 4
18 44 1
18 45 4
18 46 3
18 47 5
18 48 2
18 49 1
18 50 1
18 51 3
18 52 3
18 53 2
18 54 2
18 55 1
18 56 5
18 57 3
18 58 2
18 59 4
18 60 4
18 61 5
18 62 5
18 63 2
18 64 4
18 65 3
18 66 1
18 67 4
18 68 5
18 69 3
18 70 4
18 71 3
18 72 1
18 73 2
18 74 1
18 75 1
18 76 4
18 77 3
18 78 4
18 79 3
18 80 1
18 81 1
18 82 2
18 83 5
18 84 4
18 85 5
18 86 5
18 87 2
18 88 1
18 89 3
18 90 1
18 91 4
18 92 3
18 93 4
18 94 2
18 95 4
18 96 3
18 97 4
18 98 2
18 99 5
18 100 1
19 20 2
19 21 2
19 22 4
19 23 3
19 24 2
19 25 2
19 26 2
19 27 4
19 28 2
19 29 4
19 30 5
19 31 3
19 32 2
19 33 2
19 34 2
19 35 5
19 36 1
19 37 5
19 38 2
19 39 2
19 40 5
19 41 2
19 42 1
19 43 3
19 44 1
19 45 4
19 46 5
19 47 1
19 48 4
19 49 4
19 50 3
19 51 5
19 52 1
19 53 1
19 54 2
19 55 2
19 56 4
19 57 4
19 58 1
19 59 5
19 60 3
19 61 1
19 62 4
19 63 5
19 64 2
19 65 5
19 66 1
19 67 2
19 68 5
19 69 5
19 70 2
19 71 4
19 72 1
19 73 2
19 74 1
19 75 5
19 76 1
19 77 4
19 78 4
19 79 5
19 80 2
19 81 2
19 82 5
19 83 5
19 84 3
19 85 2
19 86 4
19 87 3
19 88 2
19 89 4
19 90 2
19 91 3
19 92 3
19 93 3
19 94 1
19 95 3
19 96 2
19 97 2
19 98 3
19 99 2
19 100 1
20 21 1
20 22 3
20 23 5
20 24 5
20 25 2
20 26 5
20 27 5
20 28 2
20 29 3
20 30 2
20 31 2
20 32 1
20 33 4
20 34 1
20 35 1
20 36 1
20 37 5
20 38 4
20 39 2
20 40 4
20 41 5
20 42 2
20 43 2
20 44 5
20 45 1
20 46 1
20 47 2
20 48 1
20 49 2
20 50 5
20 51 4
20 52 1
20 53 4
20 54 2
20 55 1
20 56 4
20 57 3
20 58 4
20 59 4
20 60 2
20 61 5
20 62 1
20 63 5
20 64 1
20 65 2
20 66 5
20 67 2
20 68 4
20 69 3
20 70 4
20 71 1
20 72 4
20 73 2
20 74 4
20 75 5
20 76 5
20 77 1
20 78 3
20 79 3
20 80 3
20 81 2
20 82 5
20 83 3
20 84 5
20 85 5
20 86 4
20 87 2
20 88 5
20 89 1
20 90 4
20 91 1
20 92 1
20 93 5
20 94 4
20 95 2
20 96 1
20 97 4
20 98 1
20 99 4
20 100 3
21 22 4
21 23 3
21 24 1
21 25 5
21 26 1
21 27 4
21 28 4
21 29 3
21 30 4
21 31 2
21 32 3
21 33 3
21 34 5
21 35 1
21 36 5
21 37 2
21 38 3
21 39 5
21 40 3
21 41 5
21 42 5
21 43 3
21 44 4
21 45 4
21 46 1
21 47 1
21 48 2
21 49 5
21 50 3
21 51 2
21 52 2
21 53 4
21 54 3
21 55 3
21 56 2
21 57 4
21 58 3
21 59 1
21 60 5
21 61 5
21 62 4
21 63 4
21 64 5
21 65 4
21 66 2
21 67 5
21 68 3
21 69 3
21 70 2
21 71 3
21 72 2
21 73 5
21 74 2
21 75 3
21 76 4
21 77 2
21 78 5
21 79 1
21 80 2
21 81 2
21 82 3
21 83 2
21 84 3
21 85 1
21 86 5
21 87 3
21 88 1
21 89 3
21 90 4
21 91 3
21 92 2
21 93 3
21 94 5
21 95 5
21 96 3
21 97 2
21 98 2
21 99 4
21 100 3
22 23 3
22 24 4
22 25 5
22 26 2
22 27 4
22 28 2
22 29 4
22 30 3
22 31 5
22 32 4
22 33 4
22 34 5
22 35 3
22 36 5
22 37 5
22 38 5
22 39 3
22 40 5
22 41 5
22 42 3
22 43 5
22 44 3
22 45 1
22 46 2
22 47 5
22 48 1
22 49 1
22 50 4
22 51 4
22 52 5
22 53 5
22 54 1
22 55 4
22 56 2
22 57 3
22 58 4
22 59 3
22 60 4
22 61 5
22 62 5
22 63 3
22 64 4
22 65 4
22 66 5
22 67 3
22 68 5
22 69 1
22 70 4
22 71 2
22 72 3
22 73 4
22 74 3
22 75 1
22 76 2
22 77 1
22 78 4
22 79 1
22 80 5
22 81 1
22 82 3
22 83 5
22 84 5
22 85 1
22 86 2
22 87 2
22 88 5
22 89 4
22 90 2
22 91 3
22 92 4
22 93 2
22 94 4
22 95 2
22 96 3
22 97 4
22 98 2
22 99 2
22 100 3
23 24 5
23 25 5
23 26 5
23 27 5
23 28 2
23 29 2
23 30 5
23 31 1
23 32 2
23 33 4
23 34 1
23 35 4
23 36 5
23 37 2
23 38 1
23 39 5
23 40 3
23 41 5
23 42 2
23 43 2
23 44 5
23 45 2
23 46 1
23 47 5
23 48 1
23 49 5
23 50 2
23 51 2
23 52 4
23 53 2
23 54 5
23 55 4
23 56 2
23 57 1
23 58 4
23 59 1
23 60 4
23 61 3
23 62 3
23 63 5
23 64 2
23 65 4
23 66 1
23 67 5
23 68 2
23 69 3
23 70 2
23 71 3
23 72 2
23 73 5
23 74 1
23 75 4
23 76 2
23 77 5
23 78 1
23 79 4
23 80 1
23 81 5
23 82 5
23 83 3
23 84 5
23 85 5
23 86 3
23 87 3
23 88 2
23 89 2
23 90 5
23 91 3
23 92 2
23 93 5
23 94 3
23 95 3
23 96 2
23 97 1
23 98 5
23 99 5
23 100 5
24 25 5
24 26 1
24 27 4
24 28 3
24 29 3
24 30 5
24 31 5
24 32 1
24 33 3
24 34 1
24 35 3
24 36 1
24 37 4
24 38 5
24 39 4
24 40 1
24 41 5
24 42 1
24 43 5
24 44 3
24 45 1
24 46 2
24 47 4
24 48 3
24 49 5
24 50 1
24 51 4
24 52 1
24 53 3
24 54 2
24 55 2
24 56 1
24 57 2
24 58 1
24 59 2
24 60 3
24 61 2
24 62 4
24 63 1
24 64 1
24 65 1
24 66 1
24 67 3
24 68 3
24 69 2
24 70 5
24 71 3
24 72 3
24 73 1
24 74 4
24 75 4
24 76 5
24 77 1
24 78 2
24 79 1
24 80 5
24 81 4
24 82 3
24 83 5
24 84 3
24 85 2
24 86 2
24 87 3
24 88 5
24 89 1
24 90 1
24 91 2
24 92 2
24 93 1
24 94 2
24 95 3
24 96 2
24 97 3
24 98 4
24 99 3
24 100 3
25 26 1
25 27 5
25 28 1
25 29 1
25 30 1
25 31 2
25 32 2
25 33 4
25 34 5
25 35 3
25 36 2
25 37 1
25 38 5
25 39 2
25 40 1
25 41 1
25 42 4
25 43 4
25 44 3
25 45 4
25 46 1
25 47 2
25 48 2
25 49 5
25 50 4
25 51 2
25 52 1
25 53 3
25 54 2
25 55 2
25 56 2
25 57 4
25 58 5
25 59 4
25 60 3
25 61 3
25 62 3
25 63 2
25 64 3
25 65 2
25 66 4
25 67 3
25 68 5
25 69 5
25 70 3
25 71 2
25 72 1
25 73 2
25 74 3
25 75 2
25 76 2
25 77 4
25 78 2
25 79 1
25 80 1
25 81 3
25 82 5
25 83 5
25 84 5
25 85 5
25 86 1
25 87 4
25 88 2
25 89 5
25 90 1
25 91 4
25 92 1
25 93 4
25 94 3
25 95 2
25 96 1
25 97 2
25 98 3
25 99 1
25 100 2
26 27 1
26 28 3
26 29 2
26 30 4
26 31 2
26 32 2
26 33 1
26 34 4
26 35 4
26 36 1
26 37 2
26 38 3
26 39 3
26 40 1
26 41 3
26 42 5
26 43 5
26 44 2
26 45 2
26 46 5
26 47 3
26 48 3
26 49 3
26 50 1
26 51 5
26 52 2
26 53 2
26 54 3
26 55 5
26 56 3
26 57 1
26 58 3
26 59 4
26 60 2
26 61 4
26 62 5
26 63 3
26 64 3
26 65 1
26 66 4
26 67 4
26 68 5
26 69 1
26 70 1
26 71 1
26 72 1
26 73 1
26 74 1
26 75 1
26 76 4
26 77 4
26 78 3
26 79 2
26 80 1
26 81 4
26 82 2
26 83 3
26 84 5
26 85 4
26 86 5
26 87 2
26 88 2
26 89 3
26 90 1
26 91 3
26 92 4
26 93 4
26 94 5
26 95 1
26 96 4
26 97 4
26 98 1
26 99 3
26 100 1
27 28 1
27 29 4
27 30 2
27 31 4
27 32 4
27 33 2
27 34 5
27 35 5
27 36 1
27 37 5
27 38 1
27 39 4
27 40 2
27 41 1
27 42 2
27 43 4
27 44 5
27 45 5
27 46 4
27 47 5
27 48 5
27 49 4
27 50 5
27 51 2
27 52 3
27 53 3
27 54 1
27 55 4
27 56 1
27 57 4
27 58 5
27 59 1
27 60 4
27 61 5
27 62 3
27 63 5
27 64 3
27 65 1
27 66 4
27 67 4
27 68 3
27 69 3
27 70 1
27 71 2
27 72 2
27 73 3
27 74 1
27 75 5
27 76 5
27 77 1
27 78 5
27 79 1
27 80 4
27 81 1
27 82 5
27 83 3
27 84 4
27 85 5
27 86 4
27 87 1
27 88 4
27 89 3
27 90 5
27 91 1
27 92 5
27 93 3
27 94 5
27 95 2
27 96 2
27 97 1
27 98 5
27 99 5
27 100 5
28 29 2
28 30 5
28 31 4
28 32 4
28 33 2
28 34 4
28 35 3
28 36 2
28 37 3
28 38 3
28 39 1
28 40 4
28 41 4
28 42 4
28 43 1
28 44 4
28 45 4
28 46 5
28 47 1
28 48 4
28 49 3
28 50 1
28 51 5
28 52 3
28 53 3
28 54 5
28 55 1
28 56 4
28 57 2
28 58 2
28 59 4
28 60 5
28 61 5
28 62 2
28 63 4
28 64 5
28 65 4
28 66 2
28 67 3
28 68 1
28 69 5
28 70 5
28 71 3
28 72 1
28 73 5
28 74 5
28 75 3
28 76 4
28 77 3
28 78 3
28 79 5
28 80 1
28 81 2
28 82 4
28 83 1
28 84 3
28 85 1
28 86 5
28 87 1
28 88 4
28 89 2
28 90 3
28 91 4
28 92 2
28 93 1
28 94 2
28 95 3
28 96 3
28 97 4
28 98 4
28 99 5
28 100 1
29 30 2
29 31 5
29 32 2
29 33 3
29 34 1
29 35 5
29 36 4
29 37 3
29 38 1
29 39 5
29 40 4
29 41 2
29 42 1
29 43 2
29 44 2
29 45 3
29 46 5
29 47 3
29 48 3
29 49 4
29 50 5
29 51 1
29 52 3
29 53 4
29 54 3
29 55 1
29 56 1
29 57 3
29 58 3
29 59 1
29 60 4
29 61 4
29 62 5
29 63 2
29 64 3
29 65 3
29 66 3
29 67 5
29 68 3
29 69 5
29 70 5
29 71 5
29 72 3
29 73 4
29 74 4
29 75 4
29 76 1
29 77 1
29 78 3
29 79 4
29 80 1
29 81 3
29 82 3
29 83 4
29 84 4
29 85 4
29 86 2
29 87 2
29 88 3
29 89 5
29 90 1
29 91 1
29 92 2
29 93 2
29 94 4
29 95 2
29 96 4
29 97 5
29 98 5
29 99 3
29 100 1
30 31 3
30 32 3
30 33 5
30 34 5
30 35 5
30 36 5
30 37 3
30 38 4
30 39 3
30 40 5
30 41 4
30 42 3
30 43 3
30 44 2
30 45 5
30 46 5
30 47 3
30 48 1
30 49 3
30 50 1
30 51 4
30 52 2
30 53 1
30 54 3
30 55 3
30 56 4
30 57 2
30 58 3
30 59 4
30 60 2
30 61 3
30 62 1
30 63 2
30 64 4
30 65 3
30 66 4
30 67 1
30 68 1
30 69 4
30 70 3
30 71 2
30 72 1
30 73 4
30 74 2
30 75 4
30 76 4
30 77 4
30 78 5
30 79 2
30 80 3
30 81 5
30 82 3
30 83 4
30 84 5
30 85 4
30 86 4
30 87 5
30 88 2
30 89 4
30 90 4
30 91 5
30 92 4
30 93 2
30 94 1
30 95 2
30 96 3
30 97 1
30 98 1
30 99 1
30 100 3
31 32 1
31 33 2
31 34 4
31 35 3
31 36 5
31 37 5
31 38 1
31 39 2
31 40 2
31 41 2
31 42 5
31 43 1
31 44 5
31 45 1
31 46 5
31 47 5
31 48 4
31 49 3
31 50 1
31 51 4
31 52 4
31 53 5
31 54 1
31 55 2
31 56 1
31 57 3
31 58 3
31 59 5
31 60 1
31 61 4
31 62 2
31 63 4
31 64 1
31 65 1
31 66 2
31 67 3
31 68 5
31 69 4
31 70 4
31 71 3
31 72 3
31 73 2
31 74 3
31 75 4
31 76 5
31 77 3
31 78 5
31 79 5
31 80 1
31 81 1
31 82 1
31 83 5
31 84 2
31 85 4
31 86 5
31 87 4
31 88 2
31 89 5
31 90 1
31 91 4
31 92 1
31 93 2
31 94 1
31 95 3
31 96 3
31 97 1
31 98 1
31 99 1
31 100 2
32 33 3
32 34 2
32 35 2
32 36 3
32 37 5
32 38 5
32 39 1
32 40 3
32 41 3
32 42 5
32 43 3
32 44 5
32 45 3
32 46 3
32 47 3
32 48 2
32 49 3
32 50 4
32 51 2
32 52 4
32 53 1
32 54 5
32 55 5
32 56 1
32 57 4
32 58 5
32 59 3
32 60 2
32 61 4
32 62 1
32 63 3
32 64 3
32 65 2
32 66 1
32 67 4
32 68 5
32 69 4
32 70 5
32 71 1
32 72 3
32 73 2
32 74 1
32 75 5
32 76 2
32 77 2
32 78 3
32 79 2
32 80 1
32 81 2
32 82 5
32 83 2
32 84 2
32 85 2
32 86 2
32 87 5
32 88 5
32 89 2
32 90 3
32 91 5
32 92 2
32 93 2
32 94 4
32 95 3
32 96 2
32 97 1
32 98 2
32 99 5
32 100 5
33 34 2
33 35 5
33 36 5
33 37 1
33 38 1
33 39 1
33 40 1
33 41 3
33 42 4
33 43 4
33 44 3
33 45 2
33 46 2
33 47 1
33 48 1
33 49 5
33 50 5
33 51 1
33 52 3
33 53 3
33 54 2
33 55 2
33 56 1
33 57 2
33 58 5
33 59 4
33 60 4
33 61 1
33 62 3
33 63 4
33 64 4
33 65 4
33 66 4
33 67 1
33 68 1
33 69 1
33 70 3
33 71 2
33 72 5
33 73 1
33 74 1
33 75 1
33 76 4
33 77 4
33 78 1
33 79 2
33 80 1
33 81 1
33 82 2
33 83 5
33 84 5
33 85 4
33 86 1
33 87 4
33 88 2
33 89 3
33 90 2
33 91 3
33 92 1
33 93 1
33 94 5
33 95 2
33 96 5
33 97 1
33 98 1
33 99 5
33 100 5
34 35 5
34 36 1
34 37 1
34 38 1
34 39 2
34 40 3
34 41 5
34 42 5
34 43 1
34 44 4
34 45 4
34 46 1
34 47 3
34 48 3
34 49 1
34 50 2
34 51 1
34 52 5
34 53 2
34 54 1
34 55 3
34 56 2
34 57 3
34 58 4
34 59 3
34 60 3
34 61 3
34 62 5
34 63 2
34 64 5
34 65 1
34 66 4
34 67 2
34 68 3
34 69 1
34 70 2
34 71 2
34 72 4
34 73 5
34 74 1
34 75 3
34 76 5
34 77 4
34 78 4
34 79 3
34 80 3
34 81 2
34 82 3
34 83 1
34 84 1
34 85 4
34 86 4
34 87 5
34 88 2
34 89 1
34 90 3
34 91 2
34 92 2
34 93 5
34 94 1
34 95 3
34 96 1
34 97 2
34 98 3
34 99 2
34 100 5
35 36 5
35 37 4
35 38 1
35 39 3
35 40 4
35 41 2
35 42 4
35 43 3
35 44 3
35 45 2
35 46 3
35 47 3
35 48 5
35 49 5
35 50 5
35 51 4
35 52 1
35 53 2
35 54 5
35 55 2
35 56 3
35 57 2
35 58 2
35 59 4
35 60 5
35 61 2
35 62 1
35 63 3
35 64 1
35 65 5
35 66 1
35 67 2
35 68 3
35 69 1
35 70 4
35 71 3
35 72 5
35 73 4
35 74 1
35 75 4
35 76 1
35 77 2
35 78 5
35 79 1
35 80 5
35 81 1
35 82 5
35 83 3
35 84 5
35 85 5
35 86 3
35 87 5
35 88 1
35 89 1
35 90 1
35 91 2
35 92 2
35 93 4
35 94 4
35 95 3
35 96 2
35 97 4
35 98 5
35 99 4
35 100 4
36 37 1
36 38 3
36 39 1
36 40 1
36 41 4
36 42 1
36 43 1
36 44 1
36 45 5
36 46 4
36 47 4
36 48 3
36 49 5
36 50 2
36 51 2
36 52 5
36 53 4
36 54 5
36 55 2
36 56 3
36 57 5
36 58 2
36 59 1
36 60 3
36 61 1
36 62 4
36 63 1
36 64 4
36 65 3
36 66 3
36 67 3
36 68 3
36 69 3
36 70 1
36 71 4
36 72 1
36 73 4
36 74 2
36 75 2
36 76 4
36 77 1
36 78 5
36 79 5
36 80 1
36 81 3
36 82 5
36 83 3
36 84 4
36 85 3
36 86 5
36 87 4
36 88 2
36 89 3
36 90 3
36 91 4
36 92 5
36 93 4
36 94 4
36 95 3
36 96 2
36 97 1
36 98 5
36 99 3
36 100 1
37 38 4
37 39 5
37 40 5
37 41 5
37 42 3
37 43 2
37 44 2
37 45 2
37 46 5
37 47 1
37 48 1
37 49 5
37 50 4
37 51 5
37 52 5
37 53 5
37 54 1
37 55 2
37 56 4
37 57 1
37 58 4
37 59 1
37 60 2
37 61 3
37 62 2
37 63 2
37 64 2
37 65 3
37 66 2
37 67 2
37 68 1
37 69 3
37 70 2
37 71 1
37 72 2
37 73 1
37 74 1
37 75 2
37 76 5
37 77 2
37 78 1
37 79 1
37 80 4
37 81 3
37 82 4
37 83 5
37 84 3
37 85 1
37 86 2
37 87 4
37 88 1
37 89 4
37 90 5
37 91 4
37 92 3
37 93 1
37 94 3
37 95 5
37 96 1
37 97 2
37 98 4
37 99 4
37 100 2
38 39 3
38 40 1
38 41 1
38 42 1
38 43 4
38 44 5
38 45 3
38 46 2
38 47 4
38 48 2
38 49 3
38 50 1
38 51 1
38 52 4
38 53 4
38 54 3
38 55 3
38 56 4
38 57 5
38 58 3
38 59 4
38 60 1
38 61 1
38 62 5
38 63 5
38 64 5
38 65 2
38 66 2
38 67 2
38 68 2
38 69 4
38 70 5
38 71 4
38 72 2
38 73 3
38 74 2
38 75 4
38 76 1
38 77 4
38 78 2
38 79 3
38 80 2
38 81 4
38 82 3
38 83 5
38 84 1
38 85 3
38 86 1
38 87 5
38 88 5
38 89 4
38 90 1
38 91 4
38 92 4
38 93 5
38 94 4
38 95 5
38 96 4
38 97 2
38 98 4
38 99 2
38 100 4
39 40 4
39 41 1
39 42 5
39 43 2
39 44 1
39 45 5
39 46 2
39 47 4
39 48 5
39 49 3
39 50 3
39 51 1
39 52 5
39 53 4
39 54 2
39 55 3
39 56 4
39 57 3
39 58 5
39 59 4
39 60 5
39 61 1
39 62 5
39 63 2
39 64 1
39 65 4
39 66 1
39 67 1
39 68 2
39 69 5
39 70 1
39 71 5
39 72 5
39 73 3
39 74 3
39 75 2
39 76 1
39 77 1
39 78 5
39 79 2
39 80 3
39 81 5
39 82 1
39 83 2
39 84 1
39 85 5
39 86 4
39 87 4
39 88 2
39 89 2
39 90 4
39 91 4
39 92 3
39 93 2
39 94 4
39 95 5
39 96 4
39 97 2
39 98 5
39 99 1
39 100 1
40 41 2
40 42 4
40 43 3
40 44 5
40 45 5
40 46 5
40 47 2
40 48 3
40 49 1
40 50 2
40 51 5
40 52 3
40 53 5
40 54 2
40 55 5
40 56 2
40 57 5
40 58 1
40 59 5
40 60 3
40 61 5
40 62 2
40 63 3
40 64 1
40 65 3
40 66 1
40 67 3
40 68 4
40 69 4
40 70 2
40 71 2
40 72 2
40 73 5
40 74 2
40 75 4
40 76 2
40 77 3
40 78 1
40 79 5
40 80 1
40 81 3
40 82 5
40 83 2
40 84 2
40 85 5
40 86 1
40 87 2
40 88 4
40 89 1
40 90 2
40 91 2
40 92 2
40 93 3
40 94 4
40 95 4
40 96 3
40 97 4
40 98 1
40 99 2
40 100 3
41 42 3
41 43 5
41 44 4
41 45 4
41 46 1
41 47 3
41 48 5
41 49 4
41 50 2
41 51 2
41 52 2
41 53 5
41 54 2
41 55 2
41 56 3
41 57 3
41 58 2
41 59 1
41 60 3
41 61 2
41 62 5
41 63 5
41 64 3
41 65 4
41 66 2
41 67 5
41 68 5
41 69 1
41 70 5
41 71 5
41 72 4
41 73 3
41 74 5
41 75 5
41 76 4
41 77 2
41 78 1
41 79 5
41 80 3
41 81 4
41 82 5
41 83 1
41 84 1
41 85 5
41 86 5
41 87 1
41 88 5
41 89 5
41 90 5
41 91 4
41 92 1
41 93 1
41 94 1
41 95 4
41 96 4
41 97 2
41 98 3
41 99 4
41 100 3
42 43 4
42 44 5
42 45 1
42 46 5
42 47 5
42 48 5
42 49 1
42 50 2
42 51 2
42 52 2
42 53 5
42 54 5
42 55 2
42 56 5
42 57 5
42 58 5
42 59 1
42 60 5
42 61 2
42 62 3
42 63 5
42 64 3
42 65 5
42 66 5
42 67 4
42 68 1
42 69 2
42 70 2
42 71 3
42 72 4
42 73 2
42 74 5
42 75 4
42 76 3
42 77 5
42 78 5
42 79 1
42 80 1
42 81 1
42 82 3
42 83 3
42 84 5
42 85 3
42 86 4
42 87 4
42 88 4
42 89 4
42 90 5
42 91 2
42 92 5
42 93 2
42 94 1
42 95 1
42 96 3
42 97 1
42 98 5
42 99 2
42 100 1
43 44 5
43 45 5
43 46 5
43 47 1
43 48 1
43 49 2
43 50 5
43 51 3
43 52 5
43 53 4
43 54 3
43 55 4
43 56 5
43 57 2
43 58 5
43 59 1
43 60 1
43 61 3
43 62 3
43 63 5
43 64 4
43 65 2
43 66 5
43 67 3
43 68 1
43 69 3
43 70 1
43 71 5
43 72 2
43 73 2
43 74 2
43 75 1
43 76 3
43 77 4
43 78 4
43 79 5
43 80 4
43 81 2
43 82 3
43 83 4
43 84 1
43 85 4
43 86 2
43 87 1
43 88 2
43 89 1
43 90 4
43 91 4
43 92 2
43 93 3
43 94 1
43 95 3
43 96 4
43 97 1
43 98 1
43 99 1
43 100 2
44 45 4
44 46 3
44 47 4
44 48 5
44 49 5
44 50 4
44 51 1
44 52 2
44 53 4
44 54 4
44 55 2
44 56 2
44 57 2
44 58 4
44 59 5
44 60 3
44 61 3
44 62 3
44 63 5
44 64 3
44 65 4
44 66 4
44 67 5
44 68 5
44 69 1
44 70 2
44 71 3
44 72 3
44 73 2
44 74 1
44 75 2
44 76 3
44 77 3
44 78 1
44 79 4
44 80 5
44 81 1
44 82 1
44 83 3
44 84 1
44 85 3
44 86 3
44 87 5
44 88 2
44 89 2
44 90 1
44 91 4
44 92 5
44 93 1
44 94 2
44 95 5
44 96 3
44 97 3
44 98 1
44 99 1
44 100 4
45 46 3
45 47 5
45 48 1
45 49 3
45 50 1
45 51 3
45 52 1
45 53 1
45 54 1
45 55 5
45 56 4
45 57 2
45 58 5
45 59 1
45 60 5
45 61 4
45 62 1
45 63 5
45 64 1
45 65 4
45 66 5
45 67 5
45 68 2
45 69 2
45 70 3
45 71 5
45 72 4
45 73 3
45 74 3
45 75 3
45 76 5
45 77 1
45 78 2
45 79 3
45 80 4
45 81 3
45 82 3
45 83 1
45 84 5
45 85 5
45 86 3
45 87 1
45 88 5
45 89 1
45 90 2
45 91 1
45 92 3
45 93 1
45 94 1
45 95 3
45 96 1
45 97 1
45 98 3
45 99 3
45 100 3
46 47 4
46 48 4
46 49 1
46 50 4
46 51 4
46 52 2
46 53 5
46 54 1
46 55 3
46 56 5
46 57 3
46 58 1
46 59 1
46 60 2
46 61 1
46 62 2
46 63 3
46 64 2
46 65 4
46 66 4
46 67 1
46 68 2
46 69 4
46 70 5
46 71 5
46 72 4
46 73 4
46 74 2
46 75 2
46 76 5
46 77 3
46 78 4
46 79 1
46 80 5
46 81 3
46 82 1
46 83 2
46 84 3
46 85 4
46 86 5
46 87 4
46 88 1
46 89 5
46 90 5
46 91 5
46 92 2
46 93 3
46 94 5
46 95 4
46 96 4
46 97 1
46 98 1
46 99 2
46 100 2
47 48 5
47 49 1
47 50 2
47 51 4
47 52 4
47 53 1
47 54 4
47 55 3
47 56 2
47 57 2
47 58 3
47 59 3
47 60 3
47 61 2
47 62 4
47 63 1
47 64 5
47 65 1
47 66 5
47 67 2
47 68 4
47 69 2
47 70 5
47 71 4
47 72 3
47 73 2
47 74 5
47 75 4
47 76 1
47 77 4
47 78 1
47 79 1
47 80 3
47 81 2
47 82 4
47 83 5
47 84 5
47 85 1
47 86 2
47 87 3
47 88 5
47 89 2
47 90 2
47 91 5
47 92 5
47 93 2
47 94 1
47 95 2
47 96 3
47 97 4
47 98 1
47 99 2
47 100 1
48 49 2
48 50 1
48 51 3
48 52 3
48 53 4
48 54 4
48 55 2
48 56 1
48 57 4
48 58 5
48 59 2
48 60 4
48 61 4
48 62 5
48 63 5
48 64 4
48 65 2
48 66 1
48 67 3
48 68 1
48 69 1
48 70 3
48 71 5
48 72 1
48 73 4
48 74 2
48 75 1
48 76 4
48 77 2
48 78 1
48 79 5
48 80 2
48 81 1
48 82 2
48 83 5
48 84 1
48 85 3
48 86 2
48 87 3
48 88 2
48 89 5
48 90 5
48 91 1
48 92 1
48 93 1
48 94 5
48 95 3
48 96 1
48 97 2
48 98 2
48 99 1
48 100 4
49 50 1
49 51 2
49 52 4
49 53 1
49 54 3
49 55 4
49 56 5
49 57 5
49 58 1
49 59 5
49 60 1
49 61 3
49 62 4
49 63 1
49 64 1
49 65 1
49 66 1
49 67 1
49 68 1
49 69 5
49 70 1
49 71 2
49 72 5
49 73 2
49 74 1
49 75 1
49 76 3
49 77 2
49 78 1
49 79 5
49 80 1
49 81 1
49 82 5
49 83 5
49 84 3
49 85 5
49 86 1
49 87 3
49 88 1
49 89 1
49 90 3
49 91 1
49 92 3
49 93 3
49 94 1
49 95 4
49 96 2
49 97 1
49 98 1
49 99 5
49 100 2
50 51 2
50 52 1
50 53 2
50 54 3
50 55 3
50 56 3
50 57 4
50 58 4
50 59 2
50 60 4
50 61 5
50 62 2
50 63 5
50 64 1
50 65 4
50 66 1
50 67 5
50 68 4
50 69 3
50 70 3
50 71 1
50 72 3
50 73 5
50 74 3
50 75 4
50 76 5
50 77 3
50 78 4
50 79 3
50 80 5
50 81 3
50 82 4
50 83 1
50 84 3
50 85 2
50 86 3
50 87 3
50 88 1
50 89 3
50 90 5
50 91 3
50 92 5
50 93 1
50 94 2
50 95 4
50 96 3
50 97 1
50 98 2
50 99 1
50 100 5
51 52 2
51 53 3
51 54 4
51 55 1
51 56 2
51 57 5
51 58 4
51 59 3
51 60 4
51 61 5
51 62 5
51 63 3
51 64 4
51 65 2
51 66 4
51 67 1
51 68 5
51 69 3
51 70 1
51 71 5
51 72 1
51 73 5
51 74 4
51 75 5
51 76 2
51 77 4
51 78 5
51 79 2
51 80 1
51 81 3
51 82 4
51 83 2
51 84 4
51 85 3
51 86 2
51 87 1
51 88 1
51 89 5
51 90 4
51 91 1
51 92 4
51 93 1
51 94 5
51 95 2
51 96 5
51 97 2
51 98 3
51 99 3
51 100 5
52 53 2
52 54 3
52 55 2
52 56 1
52 57 2
52 58 3
52 59 3
52 60 5
52 61 2
52 62 4
52 63 5
52 64 5
52 65 3
52 66 2
52 67 1
52 68 2
52 69 1
52 70 4
52 71 1
52 72 4
52 73 4
52 74 4
52 75 3
52 76 1
52 77 3
52 78 5
52 79 5
52 80 4
52 81 3
52 82 5
52 83 5
52 84 5
52 85 5
52 86 3
52 87 5
52 88 2
52 89 5
52 90 2
52 91 5
52 92 5
52 93 5
52 94 3
52 95 4
52 96 5
52 97 2
52 98 1
52 99 1
52 100 4
53 54 1
53 55 1
53 56 3
53 57 4
53 58 5
53 59 3
53 60 1
53 61 1
53 62 5
53 63 4
53 64 2
53 65 3
53 66 5
53 67 1
53 68 4
53 69 5
53 70 1
53 71 4
53 72 3
53 73 3
53 74 2
53 75 1
53 76 5
53 77 3
53 78 3
53 79 1
53 80 3
53 81 4
53 82 2
53 83 1
53 84 4
53 85 3
53 86 4
53 87 5
53 88 5
53 89 1
53 90 1
53 91 5
53 92 3
53 93 5
53 94 5
53 95 5
53 96 3
53 97 1
53 98 5
53 99 1
53 100 5
54 55 3
54 56 5
54 57 1
54 58 2
54 59 1
54 60 5
54 61 2
54 62 1
54 63 4
54 64 5
54 65 4
54 66 5
54 67 1
54 68 1
54 69 3
54 70 2
54 71 2
54 72 5
54 73 3
54 74 4
54 75 3
54 76 1
54 77 2
54 78 2
54 79 1
54 80 3
54 81 1
54 82 3
54 83 1
54 84 5
54 85 5
54 86 3
54 87 1
54 88 5
54 89 4
54 90 3
54 91 3
54 92 1
54 93 4
54 94 1
54 95 5
54 96 3
54 97 5
54 98 2
54 99 5
54 100 3
55 56 1
55 57 4
55 58 4
55 59 3
55 60 3
55 61 4
55 62 4
55 63 2
55 64 3
55 65 4
55 66 2
55 67 4
55 68 3
55 69 1
55 70 1
55 71 4
55 72 3
55 73 3
55 74 2
55 75 4
55 76 1
55 77 4
55 78 4
55 79 3
55 80 5
55 81 2
55 82 1
55 83 5
55 84 3
55 85 2
55 86 2
55 87 5
55 88 3
55 89 5
55 90 3
55 91 3
55 92 5
55 93 2
55 94 5
55 95 5
55 96 4
55 97 5
55 98 5
55 99 2
55 100 4
56 57 3
56 58 5
56 59 1
56 60 2
56 61 5
56 62 1
56 63 4
56 64 2
56 65 5
56 66 5
56 67 1
56 68 1
56 69 3
56 70 1
56 71 5
56 72 2
56 73 3
56 74 1
56 75 1
56 76 4
56 77 4
56 78 4
56 79 5
56 80 4
56 81 4
56 82 4
56 83 2
56 84 3
56 85 3
56 86 5
56 87 2
56 88 5
56 89 4
56 90 5
56 91 2
56 92 5
56 93 3
56 94 1
56 95 2
56 96 5
56 97 4
56 98 2
56 99 4
56 100 2
57 58 3
57 59 1
57 60 3
57 61 4
57 62 5
57 63 2
57 64 3
57 65 4
57 66 2
57 67 4
57 68 5
57 69 5
57 70 3
57 71 4
57 72 2
57 73 5
57 74 2
57 75 5
57 76 4
57 77 4
57 78 3
57 79 1
57 80 4
57 81 1
57 82 1
57 83 2
57 84 4
57 85 2
57 86 4
57 87 1
57 88 1
57 89 4
57 90 1
57 91 5
57 92 5
57 93 3
57 94 1
57 95 3
57 96 3
57 97 4
57 98 1
57 99 5
57 100 2
58 59 1
58 60 4
58 61 4
58 62 3
58 63 3
58 64 1
58 65 5
58 66 2
58 67 1
58 68 2
58 69 5
58 70 4
58 71 3
58 72 2
58 73 2
58 74 2
58 75 4
58 76 1
58 77 3
58 78 1
58 79 4
58 80 4
58 81 2
58 82 2
58 83 4
58 84 1
58 85 3
58 86 4
58 87 5
58 88 1
58 89 3
58 90 5
58 91 1
58 92 2
58 93 5
58 94 1
58 95 1
58 96 1
58 97 3
58 98 5
58 99 4
58 100 3
59 60 4
59 61 3
59 62 4
59 63 3
59 64 3
59 65 1
59 66 1
59 67 1
59 68 1
59 69 1
59 70 4
59 71 3
59 72 4
59 73 2
59 74 2
59 75 5
59 76 5
59 77 5
59 78 4
59 79 2
59 80 2
59 81 5
59 82 3
59 83 5
59 84 4
59 85 4
59 86 4
59 87 2
59 88 4
59 89 3
59 90 5
59 91 1
59 92 4
59 93 1
59 94 3
59 95 1
59 96 2
59 97 4
59 98 4
59 99 5
59 100 2
60 61 3
60 62 5
60 63 3
60 64 1
60 65 1
60 66 2
60 67 4
60 68 2
60 69 2
60 70 4
60 71 5
60 72 3
60 73 4
60 74 2
60 75 2
60 76 4
60 77 2
60 78 4
60 79 5
60 80 2
60 81 3
60 82 5
60 83 4
60 84 4
60 85 4
60 86 3
60 87 3
60 88 5
60 89 5
60 90 4
60 91 4
60 92 1
60 93 3
60 94 4
60 95 2
60 96 4
60 97 4
60 98 3
60 99 4
60 100 4
61 62 5
61 63 1
61 64 2
61 65 1
61 66 2
61 67 3
61 68 2
61 69 3
61 70 3
61 71 1
61 72 5
61 73 2
61 74 4
61 75 5
61 76 3
61 77 2
61 78 4
61 79 4
61 80 2
61 81 5
61 82 3
61 83 3
61 84 4
61 85 1
61 86 3
61 87 3
61 88 4
61 89 5
61 90 1
61 91 3
61 92 1
61 93 4
61 94 4
61 95 1
61 96 1
61 97 5
61 98 2
61 99 1
61 100 1
62 63 2
62 64 3
62 65 3
62 66 2
62 67 5
62 68 1
62 69 2
62 70 2
62 71 3
62 72 4
62 73 1
62 74 5
62 75 3
62 76 4
62 77 3
62 78 5
62 79 5
62 80 4
62 81 5
62 82 3
62 83 4
62 84 5
62 85 3
62 86 1
62 87 1
62 88 5
62 89 5
62 90 4
62 91 3
62 92 1
62 93 4
62 94 4
62 95 5
62 96 3
62 97 5
62 98 3
62 99 4
62 100 5
63 64 1
63 65 5
63 66 2
63 67 1
63 68 2
63 69 5
63 70 1
63 71 2
63 72 3
63 73 2
63 74 3
63 75 5
63 76 1
63 77 2
63 78 2
63 79 3
63 80 5
63 81 3
63 82 1
63 83 4
63 84 3
63 85 4
63 86 4
63 87 1
63 88 5
63 89 5
63 90 1
63 91 3
63 92 2
63 93 4
63 94 2
63 95 5
63 96 2
63 97 5
63 98 4
63 99 3
63 100 4
64 65 1
64 66 5
64 67 2
64 68 1
64 69 5
64 70 3
64 71 3
64 72 5
64 73 2
64 74 5
64 75 1
64 76 2
64 77 1
64 78 5
64 79 2
64 80 3
64 81 2
64 82 5
64 83 2
64 84 5
64 85 2
64 86 4
64 87 4
64 88 3
64 89 4
64 90 2
64 91 5
64 92 4
64 93 4
64 94 3
64 95 2
64 96 3
64 97 4
64 98 4
64 99 1
64 100 4
65 66 2
65 67 3
65 68 2
65 69 2
65 70 1
65 71 1
65 72 2
65 73 3
65 74 2
65 75 2
65 76 5
65 77 1
65 78 2
65 79 3
65 80 1
65 81 2
65 82 3
65 83 4
65 84 5
65 85 2
65 86 4
65 87 3
65 88 5
65 89 1
65 90 5
65 91 2
65 92 5
65 93 3
65 94 5
65 95 4
65 96 1
65 97 2
65 98 2
65 99 1
65 100 4
66 67 3
66 68 5
66 69 2
66 70 2
66 71 3
66 72 5
66 73 1
66 74 1
66 75 2
66 76 1
66 77 3
66 78 4
66 79 5
66 80 1
66 81 4
66 82 2
66 83 2
66 84 4
66 85 3
66 86 2
66 87 2
66 88 1
66 89 1
66 90 5
66 91 3
66 92 4
66 93 5
66 94 4
66 95 2
66 96 2
66 97 4
66 98 1
66 99 3
66 100 4
67 68 3
67 69 4
67 70 1
67 71 3
67 72 3
67 73 2
67 74 2
67 75 1
67 76 3
67 77 1
67 78 3
67 79 4
67 80 4
67 81 1
67 82 2
67 83 1
67 84 1
67 85 4
67 86 5
67 87 5
67 88 5
67 89 4
67 90 4
67 91 1
67 92 5
67 93 5
67 94 1
67 95 4
67 96 3
67 97 3
67 98 1
67 99 1
67 100 2
68 69 4
68 70 3
68 71 2
68 72 4
68 73 1
68 74 4
68 75 1
68 76 5
68 77 4
68 78 4
68 79 1
68 80 4
68 81 2
68 82 3
68 83 5
68 84 2
68 85 3
68 86 3
68 87 4
68 88 1
68 89 1
68 90 3
68 91 1
68 92 5
68 93 2
68 94 3
68 95 3
68 96 1
68 97 1
68 98 1
68 99 2
68 100 5
69 70 5
69 71 5
69 72 1
69 73 1
69 74 1
69 75 5
69 76 5
69 77 1
69 78 2
69 79 1
69 80 3
69 81 5
69 82 3
69 83 4
69 84 2
69 85 3
69 86 4
69 87 4
69 88 3
69 89 3
69 90 4
69 91 4
69 92 2
69 93 5
69 94 4
69 95 2
69 96 2
69 97 5
69 98 5
69 99 3
69 100 2
70 71 1
70 72 5
70 73 5
70 74 1
70 75 3
70 76 5
70 77 2
70 78 4
70 79 2
70 80 4
70 81 2
70 82 2
70 83 5
70 84 3
70 85 4
70 86 4
70 87 5
70 88 5
70 89 5
70 90 5
70 91 2
70 92 4
70 93 3
70 94 1
70 95 2
70 96 1
70 97 4
70 98 4
70 99 4
70 100 3
71 72 1
71 73 1
71 74 3
71 75 1
71 76 4
71 77 2
71 78 2
71 79 5
71 80 5
71 81 4
71 82 5
71 83 4
71 84 2
71 85 3
71 86 4
71 87 1
71 88 5
71 89 5
71 90 5
71 91 1
71 92 5
71 93 2
71 94 4
71 95 4
71 96 5
71 97 4
71 98 2
71 99 4
71 100 1
72 73 1
72 74 1
72 75 3
72 76 4
72 77 2
72 78 5
72 79 2
72 80 4
72 81 4
72 82 3
72 83 1
72 84 3
72 85 3
72 86 2
72 87 4
72 88 3
72 89 1
72 90 3
72 91 3
72 92 2
72 93 2
72 94 2
72 95 3
72 96 2
72 97 2
72 98 4
72 99 5
72 100 3
73 74 1
73 75 3
73 76 1
73 77 2
73 78 5
73 79 2
73 80 1
73 81 3
73 82 5
73 83 3
73 84 3
73 85 3
73 86 4
73 87 1
73 88 4
73 89 2
73 90 5
73 91 1
73 92 4
73 93 4
73 94 4
73 95 5
73 96 2
73 97 3
73 98 4
73 99 1
73 100 1
74 75 4
74 76 4
74 77 4
74 78 2
74 79 4
74 80 1
74 81 1
74 82 2
74 83 4
74 84 5
74 85 5
74 86 3
74 87 2
74 88 4
74 89 1
74 90 1
74 91 5
74 92 1
74 93 3
74 94 4
74 95 4
74 96 4
74 97 2
74 98 1
74 99 2
74 100 1
75 76 2
75 77 3
75 78 5
75 79 5
75 80 3
75 81 1
75 82 2
75 83 1
75 84 3
75 85 1
75 86 3
75 87 4
75 88 1
75 89 2
75 90 4
75 91 5
75 92 5
75 93 1
75 94 5
75 95 3
75 96 1
75 97 3
75 98 5
75 99 1
75 100 3
76 77 2
76 78 5
76 79 3
76 80 3
76 81 5
76 82 4
76 83 4
76 84 4
76 85 3
76 86 5
76 87 4
76 88 5
76 89 1
76 90 2
76 91 2
76 92 4
76 93 1
76 94 1
76 95 5
76 96 5
76 97 1
76 98 4
76 99 1
76 100 2
77 78 4
77 79 5
77 80 1
77 81 5
77 82 3
77 83 3
77 84 4
77 85 2
77 86 1
77 87 1
77 88 3
77 89 2
77 90 5
77 91 3
77 92 3
77 93 4
77 94 2
77 95 1
77 96 2
77 97 4
77 98 4
77 99 3
77 100 5
78 79 2
78 80 2
78 81 1
78 82 2
78 83 3
78 84 5
78 85 4
78 86 3
78 87 2
78 88 4
78 89 1
78 90 1
78 91 1
78 92 3
78 93 4
78 94 2
78 95 3
78 96 3
78 97 3
78 98 5
78 99 5
78 100 2
79 80 3
79 81 5
79 82 4
79 83 4
79 84 3
79 85 2
79 86 5
79 87 2
79 88 5
79 89 4
79 90 4
79 91 3
79 92 5
79 93 5
79 94 2
79 95 5
79 96 5
79 97 5
79 98 1
79 99 4
79 100 1
80 81 2
80 82 1
80 83 2
80 84 3
80 85 5
80 86 5
80 87 3
80 88 1
80 89 2
80 90 5
80 91 2
80 92 2
80 93 5
80 94 5
80 95 3
80 96 3
80 97 2
80 98 5
80 99 2
80 100 1
81 82 2
81 83 4
81 84 3
81 85 5
81 86 5
81 87 5
81 88 1
81 89 2
81 90 2
81 91 2
81 92 3
81 93 4
81 94 4
81 95 2
81 96 3
81 97 4
81 98 1
81 99 5
81 100 4
82 83 4
82 84 4
82 85 1
82 86 1
82 87 2
82 88 2
82 89 2
82 90 2
82 91 4
82 92 5
82 93 2
82 94 4
82 95 5
82 96 5
82 97 5
82 98 4
82 99 5
82 100 4
83 84 3
83 85 1
83 86 2
83 87 4
83 88 5
83 89 3
83 90 3
83 91 3
83 92 2
83 93 4
83 94 1
83 95 5
83 96 4
83 97 4
83 98 4
83 99 1
83 100 1
84 85 4
84 86 1
84 87 1
84 88 1
84 89 1
84 90 1
84 91 5
84 92 5
84 93 5
84 94 5
84 95 5
84 96 2
84 97 2
84 98 2
84 99 4
84 100 3
85 86 3
85 87 4
85 88 2
85 89 4
85 90 1
85 91 3
85 92 2
85 93 4
85 94 5
85 95 4
85 96 3
85 97 2
85 98 1
85 99 3
85 100 3
86 87 4
86 88 5
86 89 5
86 90 3
86 91 2
86 92 2
86 93 2
86 94 3
86 95 5
86 96 4
86 97 1
86 98 5
86 99 1
86 100 3
87 88 2
87 89 3
87 90 4
87 91 1
87 92 5
87 93 4
87 94 1
87 95 2
87 96 5
87 97 1
87 98 1
87 99 1
87 100 5
88 89 3
88 90 1
88 91 5
88 92 3
88 93 4
88 94 4
88 95 4
88 96 5
88 97 5
88 98 5
88 99 5
88 100 4
89 90 5
89 91 2
89 92 3
89 93 1
89 94 5
89 95 2
89 96 5
89 97 5
89 98 5
89 99 2
89 100 2
90 91 5
90 92 1
90 93 3
90 94 2
90 95 4
90 96 5
90 97 2
90 98 4
90 99 2
90 100 2
91 92 4
91 93 2
91 94 4
91 95 1
91 96 3
91 97 5
91 98 3
91 99 5
91 100 5
92 93 4
92 94 2
92 95 1
92 96 1
92 97 1
92 98 4
92 99 2
92 100 3
93 94 2
93 95 4
93 96 5
93 97 1
93 98 1
93 99 3
93 100 4
94 95 2
94 96 4
94 97 3
94 98 1
94 99 5
94 100 1
95 96 3
95 97 3
95 98 5
95 99 3
95 100 4
96 97 1
96 98 3
96 99 1
96 100 5
97 98 2
97 99 2
97 100 2
98 99 4
98 100 3
99 100 5
